peakDumbCharging = 25900; 
Machine = anon_enum(16); 
machineSpeed = [3700,3700,3700,3700,3700,3700,3700,3700,3700,3700,3700,3700,3700,3700,3700,3700]; 
machineLoad = [3700,3700,3700,3700,3700,3700,3700,3700,3700,3700,3700,3700,3700,3700,3700,3700]; 
Car = anon_enum(33); 
demandCar = [5360,6920,2000,25520,3400,23240,5880,4360,3000,2680,10120,1720,7480,16320,16400,1800,4800,9840,6200,6880,10960,11440,3040,2400,9080,2760,19120,6680,5680,11360,4400,28680,32241]; 
arrivalCar = [68,62,60,58,58,57,56,56,55,54,53,53,53,52,52,51,51,51,49,49,48,47,47,46,45,42,41,40,38,38,38,38,31]; 
departureCar = [73,65,62,67,65,65,60,59,57,56,58,55,59,59,58,53,55,55,52,52,53,52,49,48,49,44,52,45,45,43,41,58,48]; 
